\* berth *\
Minimize
OBJ: 495 mid_for_y_0 + 507 mid_for_y_1 + 528 mid_for_y_10 + 466 mid_for_y_11
 + 593 mid_for_y_12 + 401 mid_for_y_13 + 475 mid_for_y_14 + 428 mid_for_y_15
 + 427 mid_for_y_16 + 590 mid_for_y_17 + 470 mid_for_y_18 + 518 mid_for_y_19
 + 445 mid_for_y_2 + 505 mid_for_y_20 + 429 mid_for_y_21 + 483 mid_for_y_22
 + 437 mid_for_y_23 + 594 mid_for_y_24 + 597 mid_for_y_25 + 447 mid_for_y_26
 + 437 mid_for_y_27 + 448 mid_for_y_28 + 470 mid_for_y_29 + 592 mid_for_y_3
 + 442 mid_for_y_4 + 467 mid_for_y_5 + 536 mid_for_y_6 + 540 mid_for_y_7
 + 500 mid_for_y_8 + 411 mid_for_y_9 + 450 mid_x_0 + 448 mid_x_1
 + 489 mid_x_10 + 479 mid_x_11 + 592 mid_x_12 + 531 mid_x_13 + 522 mid_x_14
 + 421 mid_x_15 + 414 mid_x_16 + 470 mid_x_17 + 561 mid_x_18 + 557 mid_x_19
 + 418 mid_x_2 + 591 mid_x_20 + 507 mid_x_21 + 589 mid_x_22 + 437 mid_x_23
 + 521 mid_x_24 + 433 mid_x_25 + 448 mid_x_26 + 459 mid_x_27 + 473 mid_x_28
 + 552 mid_x_29 + 584 mid_x_3 + 583 mid_x_4 + 459 mid_x_5 + 556 mid_x_6
 + 594 mid_x_7 + 539 mid_x_8 + 531 mid_x_9
Subject To
_C1: mid_x_0 >= 0
_C10: - mid_x_1 - x_1 <= -660
_C100: mid_for_y_12 >= 0
_C101: mid_for_y_12 - y_12 >= -185
_C102: x_12 <= 812
_C103: y_12 >= 185
_C104: x_12 >= 0
_C105: mid_x_13 >= 0
_C106: - mid_x_13 - x_13 <= -172
_C107: mid_x_13 - x_13 >= -172
_C108: mid_for_y_13 >= 0
_C109: mid_for_y_13 - y_13 >= -65
_C11: mid_x_1 - x_1 >= -660
_C110: x_13 <= 812
_C111: y_13 >= 65
_C112: x_13 >= 0
_C113: mid_x_14 >= 0
_C114: - mid_x_14 - x_14 <= -795
_C115: mid_x_14 - x_14 >= -795
_C116: mid_for_y_14 >= 0
_C117: mid_for_y_14 - y_14 >= -168
_C118: x_14 <= 816
_C119: y_14 >= 168
_C12: mid_for_y_1 >= 0
_C120: x_14 >= 0
_C121: mid_x_15 >= 0
_C122: - mid_x_15 - x_15 <= -416
_C123: mid_x_15 - x_15 >= -416
_C124: mid_for_y_15 >= 0
_C125: mid_for_y_15 - y_15 >= -62
_C126: x_15 <= 812
_C127: y_15 >= 62
_C128: x_15 >= 0
_C129: mid_x_16 >= 0
_C13: mid_for_y_1 - y_1 >= -24
_C130: - mid_x_16 - x_16 <= -756
_C131: mid_x_16 - x_16 >= -756
_C132: mid_for_y_16 >= 0
_C133: mid_for_y_16 - y_16 >= -1
_C134: x_16 <= 816
_C135: y_16 >= 1
_C136: x_16 >= 0
_C137: mid_x_17 >= 0
_C138: - mid_x_17 - x_17 <= -525
_C139: mid_x_17 - x_17 >= -525
_C14: x_1 <= 800
_C140: mid_for_y_17 >= 0
_C141: mid_for_y_17 - y_17 >= -138
_C142: x_17 <= 803
_C143: y_17 >= 138
_C144: x_17 >= 0
_C145: mid_x_18 >= 0
_C146: - mid_x_18 - x_18 <= -241
_C147: mid_x_18 - x_18 >= -241
_C148: mid_for_y_18 >= 0
_C149: mid_for_y_18 - y_18 >= -177
_C15: y_1 >= 24
_C150: x_18 <= 820
_C151: y_18 >= 177
_C152: x_18 >= 0
_C153: mid_x_19 >= 0
_C154: - mid_x_19 - x_19 <= -344
_C155: mid_x_19 - x_19 >= -344
_C156: mid_for_y_19 >= 0
_C157: mid_for_y_19 - y_19 >= -49
_C158: x_19 <= 817
_C159: y_19 >= 49
_C16: x_1 >= 0
_C160: x_19 >= 0
_C161: mid_x_20 >= 0
_C162: - mid_x_20 - x_20 <= -595
_C163: mid_x_20 - x_20 >= -595
_C164: mid_for_y_20 >= 0
_C165: mid_for_y_20 - y_20 >= -9
_C166: x_20 <= 801
_C167: y_20 >= 9
_C168: x_20 >= 0
_C169: mid_x_21 >= 0
_C17: mid_x_2 >= 0
_C170: - mid_x_21 - x_21 <= -708
_C171: mid_x_21 - x_21 >= -708
_C172: mid_for_y_21 >= 0
_C173: mid_for_y_21 - y_21 >= -117
_C174: x_21 <= 803
_C175: y_21 >= 117
_C176: x_21 >= 0
_C177: mid_x_22 >= 0
_C178: - mid_x_22 - x_22 <= -706
_C179: mid_x_22 - x_22 >= -706
_C18: - mid_x_2 - x_2 <= -781
_C180: mid_for_y_22 >= 0
_C181: mid_for_y_22 - y_22 >= -163
_C182: x_22 <= 805
_C183: y_22 >= 163
_C184: x_22 >= 0
_C185: mid_x_23 >= 0
_C186: - mid_x_23 - x_23 <= -161
_C187: mid_x_23 - x_23 >= -161
_C188: mid_for_y_23 >= 0
_C189: mid_for_y_23 - y_23 >= -80
_C19: mid_x_2 - x_2 >= -781
_C190: x_23 <= 819
_C191: y_23 >= 80
_C192: x_23 >= 0
_C193: mid_x_24 >= 0
_C194: - mid_x_24 - x_24 <= -757
_C195: mid_x_24 - x_24 >= -757
_C196: mid_for_y_24 >= 0
_C197: mid_for_y_24 - y_24 >= -110
_C198: x_24 <= 807
_C199: y_24 >= 110
_C2: - mid_x_0 - x_0 <= -424
_C20: mid_for_y_2 >= 0
_C200: x_24 >= 0
_C201: mid_x_25 >= 0
_C202: - mid_x_25 - x_25 <= -868
_C203: mid_x_25 - x_25 >= -868
_C204: mid_for_y_25 >= 0
_C205: mid_for_y_25 - y_25 >= -93
_C206: x_25 <= 804
_C207: y_25 >= 93
_C208: x_25 >= 0
_C209: mid_x_26 >= 0
_C21: mid_for_y_2 - y_2 >= -269
_C210: - mid_x_26 - x_26 <= -227
_C211: mid_x_26 - x_26 >= -227
_C212: mid_for_y_26 >= 0
_C213: mid_for_y_26 - y_26 >= -135
_C214: x_26 <= 819
_C215: y_26 >= 135
_C216: x_26 >= 0
_C217: mid_x_27 >= 0
_C218: - mid_x_27 - x_27 <= -569
_C219: mid_x_27 - x_27 >= -569
_C22: x_2 <= 809
_C220: mid_for_y_27 >= 0
_C221: mid_for_y_27 - y_27 >= -65
_C222: x_27 <= 813
_C223: y_27 >= 65
_C224: x_27 >= 0
_C225: mid_x_28 >= 0
_C226: - mid_x_28 - x_28 <= -77
_C227: mid_x_28 - x_28 >= -77
_C228: mid_for_y_28 >= 0
_C229: mid_for_y_28 - y_28 >= -87
_C23: y_2 >= 269
_C230: x_28 <= 815
_C231: y_28 >= 87
_C232: x_28 >= 0
_C233: mid_x_29 >= 0
_C234: - mid_x_29 - x_29 <= -79
_C235: mid_x_29 - x_29 >= -79
_C236: mid_for_y_29 >= 0
_C237: mid_for_y_29 - y_29 >= -11
_C238: x_29 <= 811
_C239: y_29 >= 11
_C24: x_2 >= 0
_C240: x_29 >= 0
_C241: - x_5 + x_6 + 100000000 z_x_(6,_5) <= 99999912
_C242: x_5 - x_6 + 100000000 z_x_(5,_6) <= 99999907
_C243: - y_5 + y_6 + 100000000 z_y_(6,_5) <= 99999972
_C244: y_5 - y_6 + 100000000 z_y_(5,_6) <= 99999974
_C245: z_x_(5,_6) + z_x_(6,_5) + z_y_(5,_6) + z_y_(6,_5) >= 1
_C246: - x_1 + x_16 + 100000000 z_x_(16,_1) <= 99999916
_C247: x_1 - x_16 + 100000000 z_x_(1,_16) <= 99999900
_C248: - y_1 + y_16 + 100000000 z_y_(16,_1) <= 99999973
_C249: y_1 - y_16 + 100000000 z_y_(1,_16) <= 99999973
_C25: mid_x_3 >= 0
_C250: z_x_(1,_16) + z_x_(16,_1) + z_y_(1,_16) + z_y_(16,_1) >= 1
_C251: - x_15 + x_19 + 100000000 z_x_(19,_15) <= 99999917
_C252: x_15 - x_19 + 100000000 z_x_(15,_19) <= 99999912
_C253: - y_15 + y_19 + 100000000 z_y_(19,_15) <= 99999969
_C254: y_15 - y_19 + 100000000 z_y_(15,_19) <= 99999972
_C255: z_x_(15,_19) + z_x_(19,_15) + z_y_(15,_19) + z_y_(19,_15) >= 1
_C256: - x_1 + x_20 + 100000000 z_x_(20,_1) <= 99999901
_C257: x_1 - x_20 + 100000000 z_x_(1,_20) <= 99999900
_C258: - y_1 + y_20 + 100000000 z_y_(20,_1) <= 99999972
_C259: y_1 - y_20 + 100000000 z_y_(1,_20) <= 99999973
_C26: - mid_x_3 - x_3 <= -400
_C260: z_x_(1,_20) + z_x_(20,_1) + z_y_(1,_20) + z_y_(20,_1) >= 1
_C261: - x_10 + x_21 + 100000000 z_x_(21,_10) <= 99999903
_C262: x_10 - x_21 + 100000000 z_x_(10,_21) <= 99999911
_C263: - y_10 + y_21 + 100000000 z_y_(21,_10) <= 99999968
_C264: y_10 - y_21 + 100000000 z_y_(10,_21) <= 99999966
_C265: z_x_(10,_21) + z_x_(21,_10) + z_y_(10,_21) + z_y_(21,_10) >= 1
_C266: - x_10 + x_22 + 100000000 z_x_(22,_10) <= 99999905
_C267: x_10 - x_22 + 100000000 z_x_(10,_22) <= 99999911
_C268: - y_10 + y_22 + 100000000 z_y_(22,_10) <= 99999968
_C269: y_10 - y_22 + 100000000 z_y_(10,_22) <= 99999966
_C27: mid_x_3 - x_3 >= -400
_C270: z_x_(10,_22) + z_x_(22,_10) + z_y_(10,_22) + z_y_(22,_10) >= 1
_C271: - x_14 + x_22 + 100000000 z_x_(22,_14) <= 99999905
_C272: x_14 - x_22 + 100000000 z_x_(14,_22) <= 99999916
_C273: - y_14 + y_22 + 100000000 z_y_(22,_14) <= 99999968
_C274: y_14 - y_22 + 100000000 z_y_(14,_22) <= 99999968
_C275: z_x_(14,_22) + z_x_(22,_14) + z_y_(14,_22) + z_y_(22,_14) >= 1
_C276: - x_13 + x_23 + 100000000 z_x_(23,_13) <= 99999919
_C277: x_13 - x_23 + 100000000 z_x_(13,_23) <= 99999912
_C278: - y_13 + y_23 + 100000000 z_y_(23,_13) <= 99999973
_C279: y_13 - y_23 + 100000000 z_y_(13,_23) <= 99999972
_C28: mid_for_y_3 >= 0
_C280: z_x_(13,_23) + z_x_(23,_13) + z_y_(13,_23) + z_y_(23,_13) >= 1
_C281: - x_21 + x_24 + 100000000 z_x_(24,_21) <= 99999907
_C282: x_21 - x_24 + 100000000 z_x_(21,_24) <= 99999903
_C283: - y_21 + y_24 + 100000000 z_y_(24,_21) <= 99999972
_C284: y_21 - y_24 + 100000000 z_y_(21,_24) <= 99999968
_C285: z_x_(21,_24) + z_x_(24,_21) + z_y_(21,_24) + z_y_(24,_21) >= 1
_C286: - x_21 + x_25 + 100000000 z_x_(25,_21) <= 99999904
_C287: x_21 - x_25 + 100000000 z_x_(21,_25) <= 99999903
_C288: - y_21 + y_25 + 100000000 z_y_(25,_21) <= 99999970
_C289: y_21 - y_25 + 100000000 z_y_(21,_25) <= 99999968
_C29: mid_for_y_3 - y_3 >= 0
_C290: z_x_(21,_25) + z_x_(25,_21) + z_y_(21,_25) + z_y_(25,_21) >= 1
_C291: - x_24 + x_25 + 100000000 z_x_(25,_24) <= 99999904
_C292: x_24 - x_25 + 100000000 z_x_(24,_25) <= 99999907
_C293: - y_24 + y_25 + 100000000 z_y_(25,_24) <= 99999970
_C294: y_24 - y_25 + 100000000 z_y_(24,_25) <= 99999972
_C295: z_x_(24,_25) + z_x_(25,_24) + z_y_(24,_25) + z_y_(25,_24) >= 1
_C296: x_26 - x_8 + 100000000 z_x_(26,_8) <= 99999919
_C297: - x_26 + x_8 + 100000000 z_x_(8,_26) <= 99999916
_C298: y_26 - y_8 + 100000000 z_y_(26,_8) <= 99999965
_C299: - y_26 + y_8 + 100000000 z_y_(8,_26) <= 99999968
_C3: mid_x_0 - x_0 >= -424
_C30: x_3 <= 810
_C300: z_x_(26,_8) + z_x_(8,_26) + z_y_(26,_8) + z_y_(8,_26) >= 1
_C301: x_27 - x_4 + 100000000 z_x_(27,_4) <= 99999913
_C302: - x_27 + x_4 + 100000000 z_x_(4,_27) <= 99999900
_C303: y_27 - y_4 + 100000000 z_y_(27,_4) <= 99999970
_C304: - y_27 + y_4 + 100000000 z_y_(4,_27) <= 99999972
_C305: z_x_(27,_4) + z_x_(4,_27) + z_y_(27,_4) + z_y_(4,_27) >= 1
_C306: - x_23 + x_28 + 100000000 z_x_(28,_23) <= 99999915
_C307: x_23 - x_28 + 100000000 z_x_(23,_28) <= 99999919
_C308: - y_23 + y_28 + 100000000 z_y_(28,_23) <= 99999967
_C309: y_23 - y_28 + 100000000 z_y_(23,_28) <= 99999973
_C31: y_3 >= 0
_C310: z_x_(23,_28) + z_x_(28,_23) + z_y_(23,_28) + z_y_(28,_23) >= 1
_C311: x_29 - x_7 + 100000000 z_x_(29,_7) <= 99999911
_C312: - x_29 + x_7 + 100000000 z_x_(7,_29) <= 99999913
_C313: y_29 - y_7 + 100000000 z_y_(29,_7) <= 99999971
_C314: - y_29 + y_7 + 100000000 z_y_(7,_29) <= 99999971
_C315: z_x_(29,_7) + z_x_(7,_29) + z_y_(29,_7) + z_y_(7,_29) >= 1
_C316: - x_10 + x_17 + 100000000 z_x_(17,_10) <= 99999903
_C317: x_10 - x_17 + 100000000 z_x_(10,_17) <= 99999911
_C318: - y_10 + y_17 + 100000000 z_y_(17,_10) <= 99999970
_C319: y_10 - y_17 + 100000000 z_y_(10,_17) <= 99999966
_C32: x_3 >= 0
_C320: z_x_(10,_17) + z_x_(17,_10) + z_y_(10,_17) + z_y_(17,_10) >= 1
_C321: - x_14 + x_21 + 100000000 z_x_(21,_14) <= 99999903
_C322: x_14 - x_21 + 100000000 z_x_(14,_21) <= 99999916
_C323: - y_14 + y_21 + 100000000 z_y_(21,_14) <= 99999968
_C324: y_14 - y_21 + 100000000 z_y_(14,_21) <= 99999968
_C325: z_x_(14,_21) + z_x_(21,_14) + z_y_(14,_21) + z_y_(21,_14) >= 1
_C326: - x_21 + x_22 + 100000000 z_x_(22,_21) <= 99999905
_C327: x_21 - x_22 + 100000000 z_x_(21,_22) <= 99999903
_C328: - y_21 + y_22 + 100000000 z_y_(22,_21) <= 99999968
_C329: y_21 - y_22 + 100000000 z_y_(21,_22) <= 99999968
_C33: mid_x_4 >= 0
_C330: z_x_(21,_22) + z_x_(22,_21) + z_y_(21,_22) + z_y_(22,_21) >= 1
_C331: - x_18 + x_26 + 100000000 z_x_(26,_18) <= 99999919
_C332: x_18 - x_26 + 100000000 z_x_(18,_26) <= 99999920
_C333: - y_18 + y_26 + 100000000 z_y_(26,_18) <= 99999965
_C334: y_18 - y_26 + 100000000 z_y_(18,_26) <= 99999975
_C335: z_x_(18,_26) + z_x_(26,_18) + z_y_(18,_26) + z_y_(26,_18) >= 1
_C336: x_18 - x_6 + 100000000 z_x_(18,_6) <= 99999920
_C337: - x_18 + x_6 + 100000000 z_x_(6,_18) <= 99999912
_C338: y_18 - y_6 + 100000000 z_y_(18,_6) <= 99999975
_C339: - y_18 + y_6 + 100000000 z_y_(6,_18) <= 99999972
_C34: - mid_x_4 - x_4 <= -633
_C340: z_x_(18,_6) + z_x_(6,_18) + z_y_(18,_6) + z_y_(6,_18) >= 1
_C341: - x_14 + x_24 + 100000000 z_x_(24,_14) <= 99999907
_C342: x_14 - x_24 + 100000000 z_x_(14,_24) <= 99999916
_C343: - y_14 + y_24 + 100000000 z_y_(24,_14) <= 99999972
_C344: y_14 - y_24 + 100000000 z_y_(14,_24) <= 99999968
_C345: z_x_(14,_24) + z_x_(24,_14) + z_y_(14,_24) + z_y_(24,_14) >= 1
_C346: - x_22 + x_24 + 100000000 z_x_(24,_22) <= 99999907
_C347: x_22 - x_24 + 100000000 z_x_(22,_24) <= 99999905
_C348: - y_22 + y_24 + 100000000 z_y_(24,_22) <= 99999972
_C349: y_22 - y_24 + 100000000 z_y_(22,_24) <= 99999968
_C35: mid_x_4 - x_4 >= -633
_C350: z_x_(22,_24) + z_x_(24,_22) + z_y_(22,_24) + z_y_(24,_22) >= 1
_C351: x_18 - x_8 + 100000000 z_x_(18,_8) <= 99999920
_C352: - x_18 + x_8 + 100000000 z_x_(8,_18) <= 99999916
_C353: y_18 - y_8 + 100000000 z_y_(18,_8) <= 99999975
_C354: - y_18 + y_8 + 100000000 z_y_(8,_18) <= 99999968
_C355: z_x_(18,_8) + z_x_(8,_18) + z_y_(18,_8) + z_y_(8,_18) >= 1
_C36: mid_for_y_4 >= 0
_C37: mid_for_y_4 - y_4 >= -67
_C38: x_4 <= 800
_C39: y_4 >= 67
_C4: mid_for_y_0 >= 0
_C40: x_4 >= 0
_C41: mid_x_5 >= 0
_C42: - mid_x_5 - x_5 <= -203
_C43: mid_x_5 - x_5 >= -203
_C44: mid_for_y_5 >= 0
_C45: mid_for_y_5 - y_5 >= -215
_C46: x_5 <= 807
_C47: y_5 >= 215
_C48: x_5 >= 0
_C49: mid_x_6 >= 0
_C5: mid_for_y_0 - y_0 >= -260
_C50: - mid_x_6 - x_6 <= -266
_C51: mid_x_6 - x_6 >= -266
_C52: mid_for_y_6 >= 0
_C53: mid_for_y_6 - y_6 >= -204
_C54: x_6 <= 812
_C55: y_6 >= 204
_C56: x_6 >= 0
_C57: mid_x_7 >= 0
_C58: - mid_x_7 - x_7 <= -152
_C59: mid_x_7 - x_7 >= -152
_C6: x_0 <= 819
_C60: mid_for_y_7 >= 0
_C61: mid_for_y_7 - y_7 >= -15
_C62: x_7 <= 813
_C63: y_7 >= 15
_C64: x_7 >= 0
_C65: mid_x_8 >= 0
_C66: - mid_x_8 - x_8 <= -208
_C67: mid_x_8 - x_8 >= -208
_C68: mid_for_y_8 >= 0
_C69: mid_for_y_8 - y_8 >= -123
_C7: y_0 >= 260
_C70: x_8 <= 816
_C71: y_8 >= 123
_C72: x_8 >= 0
_C73: mid_x_9 >= 0
_C74: - mid_x_9 - x_9 <= -494
_C75: mid_x_9 - x_9 >= -494
_C76: mid_for_y_9 >= 0
_C77: mid_for_y_9 - y_9 >= -110
_C78: x_9 <= 802
_C79: y_9 >= 110
_C8: x_0 >= 0
_C80: x_9 >= 0
_C81: mid_x_10 >= 0
_C82: - mid_x_10 - x_10 <= -622
_C83: mid_x_10 - x_10 >= -622
_C84: mid_for_y_10 >= 0
_C85: mid_for_y_10 - y_10 >= -140
_C86: x_10 <= 811
_C87: y_10 >= 140
_C88: x_10 >= 0
_C89: mid_x_11 >= 0
_C9: mid_x_1 >= 0
_C90: - mid_x_11 - x_11 <= -860
_C91: mid_x_11 - x_11 >= -860
_C92: mid_for_y_11 >= 0
_C93: mid_for_y_11 - y_11 >= -206
_C94: x_11 <= 819
_C95: y_11 >= 206
_C96: x_11 >= 0
_C97: mid_x_12 >= 0
_C98: - mid_x_12 - x_12 <= -527
_C99: mid_x_12 - x_12 >= -527
Binaries
z_x_(1,_16)
z_x_(1,_20)
z_x_(10,_17)
z_x_(10,_21)
z_x_(10,_22)
z_x_(13,_23)
z_x_(14,_21)
z_x_(14,_22)
z_x_(14,_24)
z_x_(15,_19)
z_x_(16,_1)
z_x_(17,_10)
z_x_(18,_26)
z_x_(18,_6)
z_x_(18,_8)
z_x_(19,_15)
z_x_(20,_1)
z_x_(21,_10)
z_x_(21,_14)
z_x_(21,_22)
z_x_(21,_24)
z_x_(21,_25)
z_x_(22,_10)
z_x_(22,_14)
z_x_(22,_21)
z_x_(22,_24)
z_x_(23,_13)
z_x_(23,_28)
z_x_(24,_14)
z_x_(24,_21)
z_x_(24,_22)
z_x_(24,_25)
z_x_(25,_21)
z_x_(25,_24)
z_x_(26,_18)
z_x_(26,_8)
z_x_(27,_4)
z_x_(28,_23)
z_x_(29,_7)
z_x_(4,_27)
z_x_(5,_6)
z_x_(6,_18)
z_x_(6,_5)
z_x_(7,_29)
z_x_(8,_18)
z_x_(8,_26)
z_y_(1,_16)
z_y_(1,_20)
z_y_(10,_17)
z_y_(10,_21)
z_y_(10,_22)
z_y_(13,_23)
z_y_(14,_21)
z_y_(14,_22)
z_y_(14,_24)
z_y_(15,_19)
z_y_(16,_1)
z_y_(17,_10)
z_y_(18,_26)
z_y_(18,_6)
z_y_(18,_8)
z_y_(19,_15)
z_y_(20,_1)
z_y_(21,_10)
z_y_(21,_14)
z_y_(21,_22)
z_y_(21,_24)
z_y_(21,_25)
z_y_(22,_10)
z_y_(22,_14)
z_y_(22,_21)
z_y_(22,_24)
z_y_(23,_13)
z_y_(23,_28)
z_y_(24,_14)
z_y_(24,_21)
z_y_(24,_22)
z_y_(24,_25)
z_y_(25,_21)
z_y_(25,_24)
z_y_(26,_18)
z_y_(26,_8)
z_y_(27,_4)
z_y_(28,_23)
z_y_(29,_7)
z_y_(4,_27)
z_y_(5,_6)
z_y_(6,_18)
z_y_(6,_5)
z_y_(7,_29)
z_y_(8,_18)
z_y_(8,_26)
End
